(set-logic QF_S)
(declare-fun var0 () String)
(declare-fun var1 () String)
(declare-fun var2 () String)
(declare-fun var3 () String)
(declare-fun var4 () String)
(declare-fun var5 () String)
(declare-fun var6 () String)
(declare-fun var7 () String)
(declare-fun var8 () String)
(declare-fun var9 () String)
(declare-fun var10 () String)
(declare-fun var11 () String)
(declare-fun var12 () String)
(declare-fun var13 () String)
(declare-fun var14 () String)
(declare-fun var15 () String)
(declare-fun var16 () String)
(declare-fun var17 () String)
(declare-fun var18 () String)
(declare-fun var19 () String)
(declare-fun var20 () String)
(declare-fun var21 () String)
(declare-fun var22 () String)
(declare-fun var23 () String)
(declare-fun var24 () String)
(declare-fun var25 () String)
(declare-fun var26 () String)
(declare-fun var27 () String)
(declare-fun var28 () String)
(declare-fun var29 () String)
(declare-fun var30 () String)
(declare-fun var31 () String)
(declare-fun var32 () String)
(declare-fun var33 () String)
(declare-fun var34 () String)
(declare-fun var35 () String)
(declare-fun var36 () String)
(declare-fun var37 () String)
(declare-fun var38 () String)
(declare-fun var39 () String)
(declare-fun var40 () String)
(declare-fun var41 () String)
(declare-fun var42 () String)
(declare-fun var43 () String)
(declare-fun var44 () String)
(declare-fun var45 () String)
(declare-fun var46 () String)
(declare-fun var47 () String)
(declare-fun var48 () String)
(declare-fun var49 () String)
(declare-fun var50 () String)
(declare-fun var51 () String)
(declare-fun var52 () String)
(declare-fun var53 () String)
(declare-fun var54 () String)
(declare-fun var55 () String)
(declare-fun var56 () String)
(declare-fun var57 () String)
(declare-fun var58 () String)
(declare-fun var59 () String)
(declare-fun var60 () String)
(assert (= var0 (str.++ var1 var2)))
(assert (= var2 (str.++ var3 var4)))
(assert (= var4 (str.++ var5 var6)))
(assert (= var6 (str.++ var7 var8)))
(assert (= var8 (str.++ var9 var10)))
(assert (= var10 (str.++ var11 var12)))
(assert (= var12 (str.++ var13 var14)))
(assert (= var14 (str.++ var15 var16)))
(assert (= var16 (str.++ var17 var18)))
(assert (= var18 (str.++ var19 var20)))
(assert (= var20 (str.++ var21 var22)))
(assert (= var22 (str.++ var23 var24)))
(assert (= var24 (str.++ var25 var26)))
(assert (= var26 (str.++ var27 var28)))
(assert (= var28 (str.++ var29 var30)))
(assert (= var30 (str.++ var31 var32)))
(assert (= var32 (str.++ var33 var34)))
(assert (= var34 (str.++ var35 var36)))
(assert (= var36 (str.++ var37 var38)))
(assert (= var38 (str.++ var39 var40)))
(assert (= var40 (str.++ var41 var42)))
(assert (= var42 (str.++ var43 var44)))
(assert (= var44 (str.++ var45 var46)))
(assert (= var46 (str.++ var47 var48)))
(assert (= var48 (str.++ var49 var50)))
(assert (= var50 (str.++ var51 var52)))
(assert (= var52 (str.++ var53 var54)))
(assert (= var54 (str.++ var55 var56)))
(assert (= var56 (str.++ var57 var58)))
(assert (= var58 (str.++ var59 var60)))
(assert (= var0 "solution"))
(assert (= "o" (str.at var10 750)))
(assert (= "." (str.at var40 934)))
(assert (= "R" (str.at var2 689)))
(assert (= "b" (str.at var49 843)))
(assert (= "2" (str.at var41 820)))
(assert (= "8" (str.at var38 678)))
(assert (= "i" (str.at var54 889)))
(assert (= "t" (str.at var21 122)))
(assert (= "Y" (str.at var0 674)))
(assert (= "-" (str.at var39 656)))
(assert (= "l" (str.at var54 137)))
(assert (= "i" (str.at var27 700)))
(assert (= "6" (str.at var6 351)))
(assert (= "c" (str.at var10 906)))
(assert (= "a" (str.at var48 639)))
(assert (= "W" (str.at var28 59)))
(assert (= "Y" (str.at var38 363)))
(assert (= "!" (str.at var4 539)))
(assert (= "0" (str.at var55 902)))
(assert (= "4" (str.at var25 112)))
(assert (= "Y" (str.at var2 773)))
(assert (= "b" (str.at var25 687)))
(assert (= "D" (str.at var10 900)))
(assert (= "v" (str.at var31 443)))
(assert (= """" (str.at var0 289)))
(assert (= "F" (str.at var60 359)))
(assert (= "d" (str.at var58 868)))
(assert (= "`" (str.at var33 957)))
(assert (= "2" (str.at var36 373)))
(assert (= "b" (str.at var17 95)))
(assert (= "Y" (str.at var20 161)))
(assert (= "U" (str.at var51 27)))
(assert (= "k" (str.at var56 560)))
(assert (= "(" (str.at var17 316)))
(assert (= "A" (str.at var29 511)))
(assert (= "+" (str.at var34 51)))
(assert (= "y" (str.at var46 44)))
(assert (= "4" (str.at var9 681)))
(assert (= "^" (str.at var52 553)))
(assert (= "X" (str.at var33 246)))
(assert (= "A" (str.at var14 821)))
(assert (= "x" (str.at var14 496)))
(assert (= "6" (str.at var0 167)))
(assert (= "6" (str.at var16 538)))
(assert (= "3" (str.at var37 470)))
(assert (= "F" (str.at var27 817)))
(assert (= "#" (str.at var51 386)))
(assert (= "J" (str.at var15 488)))
(assert (= "0" (str.at var4 161)))
(assert (= "+" (str.at var8 865)))
(assert (= "+" (str.at var54 829)))
(assert (= "`" (str.at var58 141)))
(assert (= "9" (str.at var23 973)))
(assert (= "%" (str.at var48 766)))
(assert (= "9" (str.at var45 624)))
(assert (= "V" (str.at var3 932)))
(assert (= "&" (str.at var21 734)))
(assert (= "y" (str.at var37 873)))
(assert (= "7" (str.at var27 715)))
(assert (= "Z" (str.at var37 806)))
(assert (= "e" (str.at var56 739)))
(assert (= "-" (str.at var24 691)))
(assert (= "@" (str.at var3 101)))
(assert (= "k" (str.at var58 586)))
(assert (= "@" (str.at var31 461)))
(assert (= "-" (str.at var24 572)))
(assert (= ")" (str.at var59 776)))
(assert (= "h" (str.at var54 92)))
(assert (= "(" (str.at var53 337)))
(assert (= "z" (str.at var15 767)))
(assert (= "x" (str.at var48 400)))
(assert (= "," (str.at var32 848)))
(assert (= "a" (str.at var48 842)))
(assert (= "o" (str.at var48 830)))
(assert (= "U" (str.at var47 631)))
(assert (= "-" (str.at var28 804)))
(assert (= "H" (str.at var35 913)))
(assert (= "N" (str.at var35 961)))
(assert (= "l" (str.at var22 495)))
(assert (= "M" (str.at var24 123)))
(assert (= ")" (str.at var57 382)))
(assert (= "c" (str.at var26 610)))
(assert (= "L" (str.at var55 541)))
(assert (= "L" (str.at var43 240)))
(assert (= "!" (str.at var20 676)))
(assert (= "a" (str.at var48 677)))
(assert (= "!" (str.at var4 326)))
(assert (= "1" (str.at var2 812)))
(assert (= "C" (str.at var60 891)))
(assert (= "y" (str.at var37 674)))
(assert (= "m" (str.at var46 929)))
(assert (= "L" (str.at var37 691)))
(assert (= "!" (str.at var58 224)))
(assert (= "B" (str.at var56 137)))
(assert (= "P" (str.at var15 623)))
(assert (= "K" (str.at var57 971)))
(assert (= "k" (str.at var53 649)))
(assert (= "r" (str.at var37 55)))
(assert (= "f" (str.at var45 691)))
(assert (= "\\" (str.at var3 896)))
(assert (= "+" (str.at var19 32)))
(assert (= "@" (str.at var11 252)))
(assert (= "z" (str.at var43 935)))
(assert (= "h" (str.at var44 223)))
(assert (= "&" (str.at var47 927)))
(assert (= "v" (str.at var41 438)))
(assert (= "J" (str.at var47 746)))
(assert (= "," (str.at var25 260)))
(assert (= "V" (str.at var7 926)))
(assert (= "J" (str.at var9 770)))
(assert (= "T" (str.at var41 514)))
(assert (= "%" (str.at var55 706)))
(assert (= "E" (str.at var34 136)))
(assert (= "k" (str.at var15 874)))
(assert (= "*" (str.at var55 506)))
(assert (= "9" (str.at var33 449)))
(assert (= "e" (str.at var14 11)))
(assert (= "S" (str.at var7 170)))
(assert (= "^" (str.at var13 636)))
(assert (= "5" (str.at var41 596)))
(assert (= "R" (str.at var34 117)))
(assert (= "P" (str.at var43 914)))
(assert (= "E" (str.at var52 167)))
(assert (= "B" (str.at var25 192)))
(assert (= "M" (str.at var5 786)))
(assert (= "F" (str.at var26 878)))
(assert (= "1" (str.at var25 764)))
(assert (= "{" (str.at var44 761)))
(assert (= "K" (str.at var10 214)))
(assert (= "4" (str.at var19 344)))
(assert (= "7" (str.at var53 660)))
(assert (= "]" (str.at var0 802)))
(assert (= "4" (str.at var35 94)))
(assert (= "B" (str.at var52 661)))
(assert (= "(" (str.at var24 794)))
(assert (= "," (str.at var38 909)))
(assert (= "N" (str.at var43 549)))
(assert (= "5" (str.at var60 799)))
(assert (= "k" (str.at var15 192)))
(assert (= "Z" (str.at var7 495)))
(assert (= "." (str.at var9 557)))
(assert (= "V" (str.at var47 521)))
(assert (= "F" (str.at var49 216)))
(assert (= "A" (str.at var3 234)))
(assert (= "c" (str.at var55 349)))
(assert (= "T" (str.at var9 751)))
(assert (= "W" (str.at var38 943)))
(assert (= "o" (str.at var39 431)))
(assert (= "A" (str.at var51 79)))
(assert (= "v" (str.at var26 249)))
(assert (= "d" (str.at var13 401)))
(assert (= "n" (str.at var4 840)))
(assert (= "5" (str.at var58 691)))
(assert (= "'" (str.at var36 665)))
(assert (= "I" (str.at var51 999)))
(assert (= "(" (str.at var14 649)))
(assert (= "}" (str.at var51 804)))
(assert (= "2" (str.at var3 861)))
(assert (= "w" (str.at var41 125)))
(assert (= "|" (str.at var48 44)))
(assert (= "|" (str.at var51 483)))
(assert (= "%" (str.at var22 837)))
(assert (= "@" (str.at var27 244)))
(assert (= "?" (str.at var2 217)))
(assert (= "Y" (str.at var48 388)))
(assert (= "1" (str.at var11 98)))
(assert (= "O" (str.at var1 475)))
(assert (= "W" (str.at var7 162)))
(assert (= "|" (str.at var19 738)))
(assert (= "#" (str.at var43 759)))
(assert (= "t" (str.at var17 762)))
(assert (= "A" (str.at var45 264)))
(assert (= ";" (str.at var29 458)))
(assert (= "[" (str.at var36 293)))
(assert (= "A" (str.at var46 643)))
(assert (= "+" (str.at var22 328)))
(assert (= "9" (str.at var57 517)))
(assert (= "&" (str.at var19 678)))
(assert (= "\\" (str.at var39 389)))
(assert (= "x" (str.at var13 622)))
(assert (= "8" (str.at var42 957)))
(assert (= "P" (str.at var15 386)))
(assert (= "A" (str.at var31 368)))
(assert (= "m" (str.at var43 687)))
(assert (= "O" (str.at var19 429)))
(assert (= "M" (str.at var45 996)))
(assert (= "<" (str.at var12 180)))
(assert (= "n" (str.at var4 625)))
(assert (= "o" (str.at var30 600)))
(assert (= "r" (str.at var38 182)))
(assert (= "p" (str.at var38 200)))
(assert (= "P" (str.at var15 897)))
(assert (= "X" (str.at var44 739)))
(assert (= "X" (str.at var50 731)))
(assert (= "\\" (str.at var7 511)))
(assert (= "s" (str.at var46 979)))
(assert (= "." (str.at var4 551)))
(assert (= "M" (str.at var21 941)))
(assert (= "A" (str.at var51 494)))
(assert (= "7" (str.at var47 248)))
(assert (= "g" (str.at var46 120)))
(assert (= "m" (str.at var38 276)))
(assert (= "s" (str.at var53 482)))
(assert (= "B" (str.at var11 875)))
(assert (= "9" (str.at var28 251)))
(assert (= "3" (str.at var0 668)))
(assert (= "F" (str.at var13 354)))
(assert (= "z" (str.at var15 619)))
(assert (= "K" (str.at var11 593)))
(assert (= "7" (str.at var15 510)))
(assert (= "%" (str.at var30 329)))
(assert (= "e" (str.at var34 878)))
(assert (= "'" (str.at var22 659)))
(assert (= "d" (str.at var58 625)))
(assert (= "6" (str.at var53 96)))
(assert (= "H" (str.at var20 129)))
(assert (= ":" (str.at var58 786)))
(assert (= "L" (str.at var39 738)))
(assert (= "[" (str.at var52 160)))
(assert (= "j" (str.at var33 48)))
(assert (= ":" (str.at var24 921)))
(assert (= "," (str.at var35 47)))
(assert (= ";" (str.at var6 333)))
(assert (= "3" (str.at var38 104)))
(assert (= "&" (str.at var28 611)))
(assert (= "y" (str.at var29 218)))
(assert (= "D" (str.at var54 602)))
(assert (= "Q" (str.at var36 885)))
(assert (= "?" (str.at var27 946)))
(assert (= "u" (str.at var57 7)))
(assert (= "/" (str.at var55 413)))
(assert (= "@" (str.at var36 675)))
(assert (= "I" (str.at var2 34)))
(assert (= "J" (str.at var48 519)))
(assert (= "M" (str.at var54 433)))
(assert (= "D" (str.at var29 182)))
(assert (= "[" (str.at var12 244)))
(assert (= "J" (str.at var35 320)))
(assert (= "i" (str.at var25 329)))
(assert (= "$" (str.at var42 277)))
(assert (= "^" (str.at var19 796)))
(assert (= "N" (str.at var18 638)))
(assert (= "X" (str.at var24 551)))
(assert (= ";" (str.at var46 118)))
(assert (= "?" (str.at var2 380)))
(assert (= "6" (str.at var30 406)))
(assert (= "6" (str.at var39 554)))
(assert (= "i" (str.at var49 593)))
(assert (= "}" (str.at var50 491)))
(assert (= "E" (str.at var6 733)))
(assert (= "`" (str.at var10 184)))
(assert (= "p" (str.at var8 746)))
(assert (= "B" (str.at var24 89)))
(assert (= "6" (str.at var57 860)))
(assert (= "?" (str.at var10 491)))
(assert (= "," (str.at var58 891)))
(assert (= "E" (str.at var1 232)))
(assert (= "O" (str.at var56 68)))
(assert (= "x" (str.at var29 974)))
(assert (= "S" (str.at var37 517)))
(assert (= "\\" (str.at var40 435)))
(assert (= "i" (str.at var36 198)))
(assert (= "D" (str.at var56 18)))
(assert (= ";" (str.at var14 698)))
(assert (= "o" (str.at var43 311)))
(assert (= "V" (str.at var59 306)))
(assert (= "g" (str.at var1 802)))
(assert (= "q" (str.at var49 483)))
(assert (= "i" (str.at var27 679)))
(assert (= "W" (str.at var12 998)))
(assert (= "X" (str.at var35 451)))
(assert (= "p" (str.at var30 85)))
(assert (= "N" (str.at var7 920)))
(assert (= "&" (str.at var15 270)))
(assert (= "V" (str.at var33 473)))
(assert (= "l" (str.at var24 255)))
(assert (= "/" (str.at var32 401)))
(assert (= ";" (str.at var47 958)))
(assert (= "Y" (str.at var56 569)))
(assert (= "w" (str.at var1 579)))
(assert (= ")" (str.at var49 670)))
(assert (= "!" (str.at var5 302)))
(assert (= "w" (str.at var13 533)))
(assert (= "2" (str.at var29 51)))
(assert (= "7" (str.at var32 263)))
(assert (= "\\" (str.at var39 245)))
(assert (= "n" (str.at var17 352)))
(assert (= "g" (str.at var48 536)))
(assert (= "t" (str.at var23 892)))
(assert (= "@" (str.at var34 43)))
(assert (= "!" (str.at var36 813)))
(assert (= ">" (str.at var24 574)))
(assert (= "-" (str.at var60 505)))
(assert (= ";" (str.at var34 48)))
(assert (= "k" (str.at var41 124)))
(assert (= "-" (str.at var50 773)))
(assert (= "W" (str.at var51 387)))
(assert (= "M" (str.at var23 576)))
(assert (= "^" (str.at var45 581)))
(assert (= "r" (str.at var12 253)))
(assert (= "?" (str.at var5 164)))
(assert (= "6" (str.at var17 591)))
(assert (= "'" (str.at var44 638)))
(assert (= "b" (str.at var11 435)))
(assert (= "L" (str.at var43 919)))
(assert (= "^" (str.at var23 940)))
(assert (= "z" (str.at var1 285)))
(assert (= "7" (str.at var31 403)))
(assert (= "R" (str.at var53 29)))
(assert (= "J" (str.at var34 402)))
(assert (= "w" (str.at var30 449)))
(assert (= "5" (str.at var3 794)))
(assert (= "u" (str.at var20 218)))
(assert (= "e" (str.at var38 809)))
(assert (= "z" (str.at var28 693)))
(assert (= "<" (str.at var34 84)))
(assert (= "v" (str.at var5 161)))
(assert (= "4" (str.at var60 796)))
(assert (= "A" (str.at var20 948)))
(assert (= "B" (str.at var41 981)))
(assert (= "8" (str.at var24 329)))
(assert (= "Q" (str.at var33 345)))
(assert (= "`" (str.at var33 879)))
(assert (= "_" (str.at var27 455)))
(assert (= "t" (str.at var44 87)))
(assert (= "q" (str.at var44 499)))
(assert (= "k" (str.at var9 686)))
(assert (= "]" (str.at var40 781)))
(assert (= "A" (str.at var23 540)))
(assert (= "K" (str.at var12 387)))
(assert (= "K" (str.at var36 504)))
(assert (= "L" (str.at var33 593)))
(assert (= "6" (str.at var35 185)))
(assert (= "4" (str.at var20 719)))
(assert (= "h" (str.at var32 191)))
(assert (= "r" (str.at var16 56)))
(assert (= "y" (str.at var37 717)))
(assert (= "$" (str.at var32 148)))
(assert (= "I" (str.at var0 159)))
(assert (= "j" (str.at var28 390)))
(assert (= "L" (str.at var55 972)))
(assert (= "," (str.at var16 492)))
(assert (= "a" (str.at var54 444)))
(assert (= "M" (str.at var6 473)))
(assert (= "<" (str.at var52 54)))
(assert (= "w" (str.at var48 104)))
(assert (= "r" (str.at var7 128)))
(assert (= "b" (str.at var45 109)))
(assert (= "]" (str.at var32 424)))
(assert (= "D" (str.at var9 853)))
(assert (= "H" (str.at var60 791)))
(assert (= "%" (str.at var20 684)))
(assert (= "V" (str.at var14 787)))
(assert (= "U" (str.at var41 235)))
(assert (= "x" (str.at var13 458)))
(assert (= "/" (str.at var38 940)))
(assert (= "{" (str.at var5 893)))
(assert (= "X" (str.at var51 720)))
(assert (= "F" (str.at var47 369)))
(assert (= "u" (str.at var27 653)))
(assert (= "o" (str.at var30 290)))
(assert (= "e" (str.at var3 636)))
(assert (= "P" (str.at var33 796)))
(assert (= "r" (str.at var44 784)))
(assert (= "r" (str.at var51 887)))
(assert (= "Z" (str.at var47 314)))
(assert (= "^" (str.at var13 203)))
(assert (= "*" (str.at var30 237)))
(assert (= "g" (str.at var19 345)))
(assert (= "B" (str.at var56 987)))
(assert (= "`" (str.at var54 469)))
(assert (= "b" (str.at var21 905)))
(assert (= "R" (str.at var52 495)))
(assert (= "V" (str.at var55 962)))
(assert (= "k" (str.at var33 26)))
(assert (= "?" (str.at var52 838)))
(assert (= "." (str.at var20 2)))
(assert (= "3" (str.at var50 584)))
(assert (= "K" (str.at var5 888)))
(assert (= "." (str.at var32 337)))
(assert (= "." (str.at var43 38)))
(assert (= "/" (str.at var9 451)))
(assert (= "d" (str.at var35 665)))
(assert (= "4" (str.at var22 177)))
(assert (= "B" (str.at var36 402)))
(assert (= "M" (str.at var41 440)))
(assert (= "P" (str.at var5 702)))
(assert (= "o" (str.at var37 5)))
(assert (= "4" (str.at var3 1000)))
(assert (= "T" (str.at var4 735)))
(assert (= ")" (str.at var10 208)))
(assert (= "q" (str.at var52 622)))
(assert (= "d" (str.at var55 373)))
(assert (= "f" (str.at var33 916)))
(assert (= "s" (str.at var38 580)))
(assert (= "(" (str.at var57 648)))
(assert (= "g" (str.at var23 684)))
(assert (= "&" (str.at var53 879)))
(assert (= "@" (str.at var59 102)))
(assert (= "W" (str.at var31 957)))
(assert (= "-" (str.at var4 347)))
(assert (= "=" (str.at var22 54)))
(assert (= "=" (str.at var60 524)))
(assert (= "S" (str.at var7 299)))
(assert (= "x" (str.at var17 824)))
(assert (= "l" (str.at var20 910)))
(assert (= "*" (str.at var5 220)))
(assert (= "L" (str.at var11 995)))
(assert (= "w" (str.at var33 122)))
(assert (= "h" (str.at var24 522)))
(assert (= "O" (str.at var10 976)))
(assert (= "N" (str.at var50 639)))
(assert (= "|" (str.at var48 626)))
(assert (= "e" (str.at var26 857)))
(assert (= "z" (str.at var44 937)))
(assert (= "S" (str.at var25 475)))
(assert (= "0" (str.at var57 239)))
(assert (= "`" (str.at var42 812)))
(assert (= "/" (str.at var40 916)))
(assert (= "V" (str.at var47 105)))
(assert (= "0" (str.at var53 146)))
(assert (= "Z" (str.at var8 234)))
(assert (= "C" (str.at var37 950)))
(assert (= ";" (str.at var8 656)))
(assert (= "U" (str.at var14 382)))
(assert (= "x" (str.at var54 438)))
(assert (= "'" (str.at var23 177)))
(assert (= "M" (str.at var48 391)))
(assert (= "T" (str.at var42 465)))
(assert (= "D" (str.at var12 133)))
(assert (= "~" (str.at var17 280)))
(assert (= "d" (str.at var23 998)))
(assert (= "<" (str.at var47 854)))
(assert (= "g" (str.at var52 185)))
(assert (= "H" (str.at var57 79)))
(assert (= "8" (str.at var53 444)))
(assert (= "Y" (str.at var3 145)))
(assert (= "}" (str.at var29 114)))
(assert (= "T" (str.at var21 21)))
(assert (= "l" (str.at var1 726)))
(assert (= "e" (str.at var43 371)))
(assert (= "e" (str.at var58 915)))
(assert (= "r" (str.at var39 257)))
(assert (= "Z" (str.at var59 722)))
(assert (= "D" (str.at var31 847)))
(assert (= "&" (str.at var35 221)))
(assert (= "Q" (str.at var4 11)))
(assert (= "8" (str.at var12 888)))
(assert (= "j" (str.at var12 255)))
(assert (= "|" (str.at var48 141)))
(assert (= "G" (str.at var6 474)))
(assert (= "L" (str.at var38 9)))
(assert (= "g" (str.at var23 783)))
(assert (= "E" (str.at var39 68)))
(assert (= "z" (str.at var50 522)))
(assert (= "<" (str.at var27 204)))
(assert (= "*" (str.at var28 954)))
(assert (= "*" (str.at var60 418)))
(assert (= "<" (str.at var43 510)))
(assert (= "?" (str.at var38 795)))
(assert (= "o" (str.at var47 392)))
(assert (= "C" (str.at var10 174)))
(assert (= "F" (str.at var36 385)))
(assert (= "0" (str.at var5 806)))
(assert (= "w" (str.at var47 63)))
(assert (= "I" (str.at var28 882)))
(assert (= "9" (str.at var6 295)))
(assert (= "p" (str.at var53 565)))
(assert (= "}" (str.at var40 385)))
(assert (= "z" (str.at var23 726)))
(assert (= "5" (str.at var33 396)))
(assert (= "e" (str.at var22 135)))
(assert (= "F" (str.at var20 773)))
(assert (= "#" (str.at var53 602)))
(assert (= ";" (str.at var50 198)))
(assert (= "3" (str.at var36 469)))
(assert (= "." (str.at var49 999)))
(assert (= "=" (str.at var16 443)))
(assert (= "^" (str.at var42 62)))
(assert (= "!" (str.at var6 362)))
(assert (= "5" (str.at var41 707)))
(assert (= "%" (str.at var57 518)))
(assert (= "#" (str.at var51 688)))
(assert (= ")" (str.at var38 235)))
(assert (= "x" (str.at var13 808)))
(assert (= "C" (str.at var29 357)))
(assert (= "I" (str.at var11 391)))
(assert (= "3" (str.at var33 216)))
(assert (= "Q" (str.at var19 864)))
(assert (= "w" (str.at var56 619)))
(assert (= "S" (str.at var53 511)))
(assert (= "X" (str.at var29 932)))
(assert (= "M" (str.at var5 86)))
(assert (= "M" (str.at var51 345)))
(assert (= "t" (str.at var12 747)))
(assert (= ":" (str.at var23 75)))
(assert (= "^" (str.at var44 936)))
(assert (= ":" (str.at var25 790)))
(assert (= "]" (str.at var49 749)))
(assert (= "M" (str.at var55 549)))
(assert (= "/" (str.at var48 125)))
(assert (= "X" (str.at var48 704)))
(assert (= "k" (str.at var3 343)))
(assert (= "," (str.at var51 467)))
(assert (= "]" (str.at var36 798)))
(assert (= "5" (str.at var53 205)))
(assert (= """" (str.at var17 730)))
(assert (= "^" (str.at var48 873)))
(assert (= "F" (str.at var18 514)))
(assert (= "K" (str.at var53 1)))
(assert (= "C" (str.at var14 343)))
(assert (= "Z" (str.at var19 315)))
(assert (= "1" (str.at var45 495)))
(assert (= "r" (str.at var45 596)))
(assert (= "L" (str.at var43 705)))
(assert (= ")" (str.at var4 76)))
(assert (= "y" (str.at var16 325)))
(assert (= "R" (str.at var24 613)))
(assert (= "^" (str.at var18 923)))
(assert (= "=" (str.at var35 498)))
(assert (= "g" (str.at var25 359)))
(assert (= "+" (str.at var0 270)))
(assert (= "s" (str.at var4 261)))
(assert (= "w" (str.at var24 487)))
(assert (= "B" (str.at var14 607)))
(assert (= "O" (str.at var25 676)))
(assert (= "U" (str.at var49 100)))
(assert (= "$" (str.at var43 969)))
(assert (= "t" (str.at var36 624)))
(assert (= "l" (str.at var34 543)))
(assert (= ")" (str.at var37 777)))
(assert (= "L" (str.at var13 133)))
(assert (= "y" (str.at var26 597)))
(assert (= "w" (str.at var10 267)))
(assert (= "z" (str.at var29 403)))
(assert (= "$" (str.at var46 760)))
(assert (= ">" (str.at var7 53)))
(assert (= "`" (str.at var48 433)))
(assert (= "]" (str.at var35 163)))
(assert (= ")" (str.at var56 105)))
(assert (= "F" (str.at var48 529)))
(assert (= "R" (str.at var42 950)))
(assert (= "F" (str.at var4 138)))
(assert (= "B" (str.at var10 880)))
(assert (= "D" (str.at var49 534)))
(assert (= "o" (str.at var36 693)))
(assert (= "d" (str.at var30 131)))
(assert (= "R" (str.at var38 775)))
(assert (= "?" (str.at var52 909)))
(assert (= "," (str.at var46 482)))
(assert (= "e" (str.at var59 526)))
(assert (= "h" (str.at var20 213)))
(assert (= ">" (str.at var50 137)))
(assert (= "L" (str.at var50 169)))
(assert (= "v" (str.at var53 665)))
(assert (= "#" (str.at var34 137)))
(assert (= "^" (str.at var25 984)))
(assert (= "@" (str.at var57 13)))
(assert (= "}" (str.at var43 678)))
(assert (= "}" (str.at var52 564)))
(assert (= "." (str.at var26 933)))
(assert (= "g" (str.at var36 963)))
(assert (= "7" (str.at var8 218)))
(assert (= "L" (str.at var6 931)))
(assert (= "N" (str.at var27 957)))
(assert (= "H" (str.at var16 619)))
(assert (= "Q" (str.at var3 355)))
(assert (= "X" (str.at var25 443)))
(assert (= "N" (str.at var40 397)))
(assert (= "c" (str.at var2 132)))
(assert (= "O" (str.at var1 665)))
(assert (= "s" (str.at var4 163)))
(assert (= "U" (str.at var16 570)))
(assert (= "E" (str.at var40 158)))
(assert (= "[" (str.at var56 972)))
(assert (= "q" (str.at var19 111)))
(assert (= "0" (str.at var42 665)))
(assert (= "b" (str.at var31 642)))
(assert (= "J" (str.at var40 965)))
(assert (= "C" (str.at var38 698)))
(assert (= "X" (str.at var47 280)))
(assert (= "E" (str.at var59 735)))
(assert (= "N" (str.at var56 531)))
(assert (= "L" (str.at var60 762)))
(assert (= "H" (str.at var47 574)))
(assert (= "_" (str.at var55 294)))
(assert (= "1" (str.at var16 960)))
(assert (= "[" (str.at var34 401)))
(assert (= "Z" (str.at var6 127)))
(assert (= "&" (str.at var56 79)))
(assert (= "0" (str.at var15 312)))
(assert (= "+" (str.at var48 597)))
(assert (= "\\" (str.at var30 703)))
(assert (= ";" (str.at var21 248)))
(assert (= "m" (str.at var44 53)))
(assert (= "Z" (str.at var60 968)))
(assert (= "T" (str.at var16 260)))
(assert (= "p" (str.at var58 130)))
(assert (= "J" (str.at var9 640)))
(assert (= """" (str.at var55 683)))
(assert (= "@" (str.at var2 676)))
(assert (= "c" (str.at var45 420)))
(assert (= "`" (str.at var47 303)))
(assert (= "[" (str.at var42 737)))
(assert (= "c" (str.at var29 878)))
(assert (= "G" (str.at var44 534)))
(assert (= "a" (str.at var36 434)))
(assert (= "$" (str.at var53 909)))
(assert (= "-" (str.at var9 425)))
(assert (= "Q" (str.at var11 490)))
(assert (= "B" (str.at var53 933)))
(assert (= "*" (str.at var23 273)))
(assert (= "c" (str.at var8 537)))
(assert (= "X" (str.at var30 919)))
(assert (= "k" (str.at var43 481)))
(assert (= "w" (str.at var28 26)))
(assert (= "8" (str.at var58 480)))
(assert (= "n" (str.at var17 371)))
(assert (= "l" (str.at var54 292)))
(assert (= "a" (str.at var56 415)))
(assert (= "w" (str.at var10 963)))
(assert (= "=" (str.at var18 290)))
(assert (= "X" (str.at var47 951)))
(assert (= ">" (str.at var22 195)))
(assert (= "J" (str.at var29 740)))
(assert (= "J" (str.at var28 244)))
(assert (= "|" (str.at var9 584)))
(assert (= "Q" (str.at var59 542)))
(assert (= "y" (str.at var4 575)))
(assert (= "Y" (str.at var7 699)))
(assert (= "*" (str.at var1 261)))
(assert (= "[" (str.at var57 243)))
(assert (= "c" (str.at var28 767)))
(assert (= ";" (str.at var53 646)))
(assert (= "h" (str.at var49 120)))
(assert (= ">" (str.at var55 807)))
(assert (= "5" (str.at var35 247)))
(assert (= "3" (str.at var0 413)))
(assert (= "2" (str.at var35 112)))
(assert (= "j" (str.at var51 370)))
(assert (= "O" (str.at var59 955)))
(assert (= "^" (str.at var8 535)))
(assert (= "E" (str.at var46 934)))
(assert (= "k" (str.at var4 881)))
(assert (= "L" (str.at var31 725)))
(assert (= "&" (str.at var17 684)))
(assert (= "#" (str.at var33 971)))
(assert (= "'" (str.at var28 264)))
(assert (= "4" (str.at var53 883)))
(assert (= "^" (str.at var14 710)))
(assert (= "'" (str.at var28 197)))
(assert (= "o" (str.at var10 201)))
(assert (= "h" (str.at var46 24)))
(assert (= "Y" (str.at var38 324)))
(assert (= "(" (str.at var19 994)))
(assert (= ":" (str.at var11 931)))
(assert (= "3" (str.at var56 849)))
(assert (= """" (str.at var40 72)))
(assert (= "G" (str.at var5 845)))
(assert (= "I" (str.at var12 331)))
(assert (= "X" (str.at var2 211)))
(assert (= "M" (str.at var19 160)))
(assert (= "s" (str.at var1 731)))
(assert (= "q" (str.at var0 631)))
(assert (= "'" (str.at var60 690)))
(assert (= ";" (str.at var25 118)))
(assert (= "V" (str.at var19 818)))
(assert (= "]" (str.at var36 233)))
(assert (= "B" (str.at var8 255)))
(assert (= "B" (str.at var23 833)))
(assert (= "]" (str.at var17 353)))
(assert (= "p" (str.at var22 928)))
(assert (= "<" (str.at var19 654)))
(assert (= "f" (str.at var7 732)))
(assert (= "A" (str.at var15 139)))
(assert (= "T" (str.at var6 484)))
(assert (= ")" (str.at var42 149)))
(assert (= "4" (str.at var47 626)))
(assert (= "+" (str.at var5 415)))
(assert (= ":" (str.at var16 783)))
(assert (= "j" (str.at var44 60)))
(assert (= "0" (str.at var4 87)))
(assert (= "6" (str.at var47 922)))
(assert (= "d" (str.at var14 87)))
(assert (= "U" (str.at var15 812)))
(assert (= "o" (str.at var3 180)))
(assert (= "y" (str.at var19 97)))
(assert (= "N" (str.at var30 321)))
(assert (= "D" (str.at var30 820)))
(assert (= ";" (str.at var9 767)))
(assert (= "@" (str.at var15 757)))
(assert (= "C" (str.at var7 973)))
(assert (= "@" (str.at var37 719)))
(assert (= "!" (str.at var37 909)))
(assert (= "C" (str.at var37 437)))
(assert (= "1" (str.at var32 336)))
(assert (= "_" (str.at var32 590)))
(assert (= "V" (str.at var15 444)))
(assert (= ")" (str.at var32 776)))
(assert (= "j" (str.at var20 221)))
(assert (= "A" (str.at var24 177)))
(assert (= """" (str.at var18 701)))
(assert (= "x" (str.at var8 311)))
(assert (= "Y" (str.at var53 658)))
(assert (= "-" (str.at var1 743)))
(assert (= "i" (str.at var1 931)))
(assert (= "i" (str.at var28 771)))
(assert (= "S" (str.at var45 164)))
(assert (= "_" (str.at var57 766)))
(assert (= "}" (str.at var29 451)))
(assert (= "z" (str.at var53 496)))
(assert (= "?" (str.at var27 38)))
(assert (= "e" (str.at var35 562)))
(assert (= "p" (str.at var36 746)))
(assert (= "t" (str.at var40 966)))
(assert (= "/" (str.at var12 560)))
(assert (= "_" (str.at var26 738)))
(assert (= "t" (str.at var30 601)))
(assert (= "8" (str.at var31 993)))
(assert (= "v" (str.at var34 989)))
(assert (= "[" (str.at var32 171)))
(assert (= "3" (str.at var19 25)))
(assert (= "|" (str.at var57 372)))
(assert (= "]" (str.at var44 991)))
(assert (= "9" (str.at var53 548)))
(assert (= "^" (str.at var8 997)))
(assert (= "," (str.at var51 116)))
(assert (= "b" (str.at var0 933)))
(assert (= "K" (str.at var50 173)))
(assert (= "&" (str.at var11 765)))
(assert (= "K" (str.at var39 281)))
(assert (= "X" (str.at var48 928)))
(assert (= "d" (str.at var40 15)))
(assert (= "{" (str.at var36 743)))
(assert (= "I" (str.at var56 690)))
(assert (= "P" (str.at var34 15)))
(assert (= "3" (str.at var2 138)))
(assert (= "i" (str.at var37 922)))
(assert (= "@" (str.at var49 691)))
(assert (= "4" (str.at var3 620)))
(assert (= "'" (str.at var30 241)))
(assert (= "a" (str.at var20 954)))
(assert (= "8" (str.at var23 397)))
(assert (= "z" (str.at var26 327)))
(assert (= "]" (str.at var9 803)))
(assert (= "Y" (str.at var34 477)))
(assert (= "Z" (str.at var24 431)))
(assert (= "n" (str.at var28 156)))
(assert (= "?" (str.at var28 973)))
(assert (= "7" (str.at var15 271)))
(assert (= "J" (str.at var55 958)))
(assert (= "Z" (str.at var8 192)))
(assert (= "!" (str.at var0 59)))
(assert (= "D" (str.at var5 555)))
(assert (= "\\" (str.at var53 545)))
(assert (= "." (str.at var31 347)))
(assert (= "#" (str.at var49 164)))
(assert (= ")" (str.at var22 188)))
(assert (= "w" (str.at var23 50)))
(assert (= "v" (str.at var6 350)))
(assert (= "5" (str.at var22 943)))
(assert (= "*" (str.at var29 208)))
(assert (= "I" (str.at var38 440)))
(assert (= "F" (str.at var13 81)))
(assert (= "S" (str.at var27 316)))
(assert (= ";" (str.at var27 673)))
(assert (= "<" (str.at var27 851)))
(assert (= "?" (str.at var49 969)))
(assert (= "." (str.at var29 898)))
(assert (= "u" (str.at var22 226)))
(assert (= "P" (str.at var27 107)))
(assert (= "D" (str.at var42 647)))
(assert (= "N" (str.at var42 191)))
(assert (= "!" (str.at var26 310)))
(assert (= "1" (str.at var58 186)))
(assert (= "A" (str.at var36 701)))
(assert (= "4" (str.at var25 545)))
(assert (= "k" (str.at var13 288)))
(assert (= "&" (str.at var10 566)))
(assert (= "N" (str.at var36 318)))
(assert (= "S" (str.at var12 75)))
(assert (= "$" (str.at var42 197)))
(assert (= "^" (str.at var46 541)))
(assert (= "U" (str.at var48 981)))
(assert (= "y" (str.at var60 412)))
(assert (= ":" (str.at var17 949)))
(assert (= "P" (str.at var40 728)))
(assert (= "2" (str.at var35 391)))
(assert (= "(" (str.at var36 95)))
(assert (= "h" (str.at var32 239)))
(assert (= "w" (str.at var29 413)))
(assert (= "m" (str.at var15 959)))
(assert (= "7" (str.at var47 968)))
(assert (= "{" (str.at var20 901)))
(assert (= "B" (str.at var58 158)))
(assert (= "|" (str.at var56 147)))
(assert (= "!" (str.at var38 258)))
(assert (= """" (str.at var19 783)))
(assert (= "j" (str.at var13 926)))
(assert (= "+" (str.at var31 703)))
(assert (= "`" (str.at var58 494)))
(assert (= "g" (str.at var39 470)))
(assert (= "(" (str.at var39 852)))
(assert (= "%" (str.at var27 169)))
(assert (= "_" (str.at var9 3)))
(assert (= "6" (str.at var32 375)))
(assert (= "s" (str.at var34 430)))
(assert (= "Y" (str.at var36 181)))
(assert (= "~" (str.at var42 255)))
(assert (= ":" (str.at var55 986)))
(assert (= "q" (str.at var6 466)))
(assert (= "}" (str.at var14 224)))
(assert (= "z" (str.at var6 447)))
(assert (= "_" (str.at var16 802)))
(assert (= "V" (str.at var10 291)))
(assert (= "-" (str.at var46 832)))
(assert (= """" (str.at var44 672)))
(assert (= "g" (str.at var30 520)))
(assert (= "w" (str.at var31 36)))
(assert (= "K" (str.at var5 82)))
(assert (= "@" (str.at var31 480)))
(assert (= "*" (str.at var22 37)))
(assert (= "N" (str.at var14 119)))
(assert (= "n" (str.at var8 903)))
(assert (= "M" (str.at var41 743)))
(assert (= "o" (str.at var0 554)))
(assert (= "m" (str.at var44 298)))
(assert (= ">" (str.at var58 379)))
(assert (= "B" (str.at var37 356)))
(assert (= "_" (str.at var27 650)))
(assert (= "}" (str.at var43 136)))
(assert (= "E" (str.at var32 80)))
(assert (= ")" (str.at var43 517)))
(assert (= "." (str.at var8 676)))
(assert (= "Z" (str.at var18 29)))
(assert (= "O" (str.at var16 385)))
(assert (= "^" (str.at var31 978)))
(assert (= "j" (str.at var51 643)))
(assert (= "V" (str.at var57 912)))
(assert (= "2" (str.at var4 954)))
(assert (= "Q" (str.at var2 465)))
(assert (= "*" (str.at var42 119)))
(assert (= "A" (str.at var19 328)))
(assert (= "O" (str.at var1 154)))
(assert (= "6" (str.at var5 314)))
(assert (= "O" (str.at var17 160)))
(assert (= "K" (str.at var0 382)))
(assert (= "?" (str.at var33 770)))
(assert (= "i" (str.at var36 837)))
(assert (= "w" (str.at var33 628)))
(assert (= "G" (str.at var48 614)))
(assert (= "0" (str.at var45 900)))
(assert (= "2" (str.at var31 241)))
(assert (= "7" (str.at var38 820)))
(assert (= "C" (str.at var5 487)))
(assert (= "J" (str.at var52 292)))
(assert (= "y" (str.at var31 926)))
(assert (= "z" (str.at var51 978)))
(assert (= "4" (str.at var0 425)))
(assert (= "e" (str.at var37 920)))
(assert (= "!" (str.at var25 506)))
(assert (= "1" (str.at var2 896)))
(assert (= "<" (str.at var34 78)))
(assert (= "o" (str.at var48 845)))
(assert (= "g" (str.at var43 194)))
(assert (= "v" (str.at var31 769)))
(assert (= "R" (str.at var22 645)))
(assert (= "S" (str.at var43 143)))
(assert (= "E" (str.at var51 786)))
(assert (= "o" (str.at var25 321)))
(assert (= "4" (str.at var41 65)))
(assert (= "m" (str.at var55 225)))
(assert (= "l" (str.at var24 993)))
(assert (= "=" (str.at var33 925)))
(assert (= "c" (str.at var37 7)))
(assert (= "%" (str.at var28 297)))
(assert (= "s" (str.at var14 771)))
(assert (= "l" (str.at var19 109)))
(assert (= "3" (str.at var2 1000)))
(assert (= "F" (str.at var53 343)))
(assert (= "S" (str.at var39 651)))
(assert (= "M" (str.at var60 595)))
(assert (= "U" (str.at var47 823)))
(assert (= "B" (str.at var27 84)))
(assert (= "2" (str.at var29 722)))
(assert (= "0" (str.at var7 990)))
(assert (= "{" (str.at var1 535)))
(assert (= "v" (str.at var7 893)))
(assert (= "S" (str.at var8 646)))
(assert (= "J" (str.at var34 644)))
(assert (= "X" (str.at var19 397)))
(assert (= "x" (str.at var5 94)))
(assert (= "c" (str.at var46 680)))
(assert (= "l" (str.at var51 128)))
(assert (= "M" (str.at var1 175)))
(assert (= "?" (str.at var32 690)))
(assert (= "~" (str.at var58 751)))
(assert (= "h" (str.at var32 670)))
(assert (= "5" (str.at var53 360)))
(assert (= "{" (str.at var6 284)))
(assert (= "Q" (str.at var1 282)))
(assert (= "P" (str.at var16 342)))
(assert (= "}" (str.at var59 628)))
(assert (= ">" (str.at var14 774)))
(assert (= "h" (str.at var39 29)))
(assert (= "U" (str.at var8 57)))
(assert (= "J" (str.at var47 806)))
(assert (= ")" (str.at var5 729)))
(assert (= "a" (str.at var5 866)))
(assert (= "c" (str.at var4 59)))
(assert (= "g" (str.at var6 513)))
(assert (= "S" (str.at var56 101)))
(assert (= "'" (str.at var5 775)))
(assert (= "." (str.at var8 753)))
(assert (= "(" (str.at var17 610)))
(assert (= "," (str.at var4 17)))
(assert (= "N" (str.at var58 847)))
(assert (= "4" (str.at var28 932)))
(assert (= "9" (str.at var8 299)))
(assert (= "7" (str.at var20 457)))
(assert (= "*" (str.at var58 303)))
(assert (= "x" (str.at var12 279)))
(assert (= "K" (str.at var38 870)))
(assert (= "_" (str.at var58 755)))
(assert (= "J" (str.at var48 348)))
(assert (= "g" (str.at var27 342)))
(assert (= "O" (str.at var13 529)))
(assert (= "n" (str.at var2 645)))
(assert (= "O" (str.at var34 840)))
(assert (= "d" (str.at var22 391)))
(assert (= "}" (str.at var49 172)))
(assert (= "#" (str.at var59 346)))
(assert (= "K" (str.at var50 7)))
(assert (= "I" (str.at var36 728)))
(assert (= "$" (str.at var6 363)))
(assert (= "*" (str.at var16 151)))
(assert (= "(" (str.at var60 190)))
(assert (= "]" (str.at var16 663)))
(assert (= "V" (str.at var31 32)))
(assert (= "i" (str.at var60 236)))
(assert (= "g" (str.at var35 851)))
(assert (= "R" (str.at var37 33)))
(assert (= "}" (str.at var32 407)))
(assert (= "9" (str.at var53 355)))
(assert (= "\\" (str.at var48 586)))
(assert (= "$" (str.at var19 589)))
(assert (= "6" (str.at var16 264)))
(assert (= "B" (str.at var19 189)))
(assert (= "q" (str.at var18 294)))
(assert (= "`" (str.at var59 231)))
(assert (= "o" (str.at var42 893)))
(assert (= "G" (str.at var4 288)))
(assert (= "y" (str.at var16 335)))
(assert (= "J" (str.at var20 898)))
(assert (= "9" (str.at var36 933)))
(assert (= ";" (str.at var51 644)))
(assert (= "6" (str.at var40 276)))
(assert (= "J" (str.at var41 831)))
(assert (= "(" (str.at var33 985)))
(assert (= "^" (str.at var14 57)))
(assert (= "Y" (str.at var60 178)))
(check-sat)